g3 1 1 0	# problem unknown
 65 115 1 50 41 	# vars, constraints, objectives, ranges, eqns
 24 0 0 0 0 0	# nonlinear constrs, objs; ccons: lin, nonlin, nd, nzlb
 0 0	# network constraints: nonlinear, linear
 24 0 0 	# nonlinear vars in constraints, objectives, both
 0 0 0 1	# linear network variables; functions; arith, flags
 0 0 0 0 0 	# discrete variables: binary, integer, nonlinear (b,c,o)
 212 6 	# nonzeros in Jacobian, obj. gradient
 0 0	# max name lengths: constraints, variables
 0 0 0 0 0	# common exprs: b,c,o,c1,o1
C0
o5
v0
n2.0
C1
o5
v1
n2.0
C2
o5
v2
n2.0
C3
o5
v3
n2.0
C4
o5
v4
n2.0
C5
o5
v5
n2.0
C6
o5
v6
n2.0
C7
o5
v7
n2.0
C8
o5
v8
n2.0
C9
o5
v9
n2.0
C10
o5
v10
n2.0
C11
o5
v11
n2.0
C12
o5
v12
n2.0
C13
o5
v13
n2.0
C14
o5
v14
n2.0
C15
o5
v15
n2.0
C16
o5
v16
n2.0
C17
o5
v17
n2.0
C18
o5
v18
n2.0
C19
o5
v19
n2.0
C20
o5
v20
n2.0
C21
o5
v21
n2.0
C22
o5
v22
n2.0
C23
o5
v23
n2.0
C24
n0
C25
n0
C26
n0
C27
n0
C28
n0
C29
n0
C30
n0
C31
n0
C32
n0
C33
n0
C34
n0
C35
n0
C36
n0
C37
n0
C38
n0
C39
n0
C40
n0
C41
n0
C42
n0
C43
n0
C44
n0
C45
n0
C46
n0
C47
n0
C48
n0
C49
n0
C50
n0
C51
n0
C52
n0
C53
n0
C54
n0
C55
n0
C56
n0
C57
n0
C58
n0
C59
n0
C60
n0
C61
n0
C62
n0
C63
n0
C64
n0
C65
n0
C66
n0
C67
n0
C68
n0
C69
n0
C70
n0
C71
n0
C72
n0
C73
n0
C74
n0
C75
n0
C76
n0
C77
n0
C78
n0
C79
n0
C80
n0
C81
n0
C82
n0
C83
n0
C84
n0
C85
n0
C86
n0
C87
n0
C88
n0
C89
n0
C90
n0
C91
n0
C92
n0
C93
n0
C94
n0
C95
n0
C96
n0
C97
n0
C98
n0
C99
n0
C100
n0
C101
n0
C102
n0
C103
n0
C104
n0
C105
n0
C106
n0
C107
n0
C108
n0
C109
n0
C110
n0
C111
n0
C112
n0
C113
n0
C114
n0
O0 0
n0
x24
0 5.797
1 5.797
2 9.997
3 9.997
4 16.076
5 4.8
6 0.766
7 -4.49
8 11.586
9 17.2404
10 2.10363
11 17.2404
12 2.10363
13 11.5676
14 1.41145
15 10.838
16 8.718
17 9.918
18 22.464
19 15.616
20 2.141
21 2.141
22 2.141
23 1.919
r
4 0.0
4 0.0
4 0.0
4 0.0
4 0.0
4 0.0
4 0.0
4 0.0
4 0.0
2 0.0
2 0.0
4 0.0
4 0.0
4 0.0
4 0.0
4 0.0
4 0.0
4 0.0
4 0.0
4 0.0
4 0.0
2 0.0
4 0.0
4 0.0
4 0.0
4 0.0
4 0.0
4 0.0
4 0.0
4 0.0
4 0.0
4 0.0
4 0.0
4 0.0
4 0.0
4 0.0
4 0.0
4 0.0
4 0.0
4 0.0
4 0.0
4 0.0
4 0.0
4 0.0
1 -3.918
1 -4.034
1 -5.256
1 -6.365
1 -2.12
1 -6.848
1 -15.616
1 -0.222
1 -1.919
1 0.0
1 0.0
1 0.0
1 0.0
1 0.0
1 0.0
0 -220.12 220.12
0 -220.12 220.12
0 -220.12 220.12
0 -220.12 220.12
0 -220.12 220.12
0 -220.12 220.12
0 -220.12 220.12
0 -220.12 220.12
0 -220.12 220.12
0 0.0 220.12
0 0.0 220.12
0 -220.12 220.12
0 -220.12 220.12
0 -220.12 220.12
0 -220.12 220.12
0 -220.12 220.12
0 -220.12 220.12
0 -220.12 220.12
0 -220.12 220.12
0 -220.12 220.12
0 -220.12 220.12
0 0.0 220.12
0 -220.12 220.12
0 -220.12 220.12
1 11.594
1 8.4
1 4.8
1 22.012
1 1.2
1 0.96
0 8.87 11.594
0 0.0 8.4
0 0.0 4.8
0 20.344 22.012
0 0.0 1.2
0 0.0 0.96
0 0.0 5929.0
0 0.0 5929.0
0 900.0 6400.0
0 0.0 6400.0
0 0.0 5929.0
0 900.0 6400.0
0 900.0 6400.0
0 2500.0 4382.44
0 0.0 4382.44
0 900.0 4382.44
0 0.0 4382.44
0 900.0 4382.44
0 0.0 4382.44
0 0.0 4382.44
0 900.0 4382.44
0 2500.0 4382.44
0 0.0 4382.44
0 0.0 3969.0
0 625.0 4382.44
0 625.0 4382.44
b
3
3
3
3
3
3
3
3
3
3
3
3
3
3
3
3
3
3
3
3
3
3
3
3
3
3
3
3
3
3
3
3
3
3
3
3
3
3
3
3
3
3
3
3
3
3
3
3
3
3
3
3
3
3
3
3
3
3
3
3
3
3
3
3
3
k64
4
8
12
16
20
24
28
32
36
40
44
48
52
56
60
64
68
72
76
80
84
88
92
96
98
100
102
104
106
108
111
114
117
120
123
126
128
130
132
134
136
138
140
142
144
147
152
156
160
162
165
168
171
176
181
186
189
192
196
199
201
204
207
210
J0 3
45 -9.07027
46 9.07027
0 0
J1 3
45 -9.07027
46 9.07027
1 0
J2 3
46 -6.04685
47 6.04685
2 0
J3 3
46 -6.04685
47 6.04685
3 0
J4 3
47 -1.39543
48 1.39543
4 0
J5 3
49 -0.100256
50 0.100256
5 0
J6 3
50 -0.148655
51 0.148655
6 0
J7 3
48 0.226895
51 -0.226895
7 0
J8 3
48 -0.659656
58 0.659656
8 0
J9 3
52 -7.25622
53 7.25622
9 0
J10 3
52 -0.10803
53 0.10803
10 0
J11 3
53 -1.81405
54 1.81405
11 0
J12 3
53 -0.0270084
54 0.0270084
12 0
J13 3
54 -1.45124
55 1.45124
13 0
J14 3
54 -0.0216067
55 0.0216067
14 0
J15 3
55 -0.863836
56 0.863836
15 0
J16 3
56 -0.907027
57 0.907027
16 0
J17 3
57 -7.25622
58 7.25622
17 0
J18 3
58 -3.62811
59 3.62811
18 0
J19 3
59 -1.45124
60 1.45124
19 0
J20 3
55 -0.0514445
61 0.0514445
20 0
J21 3
61 -0.00641977
62 0.00641977
21 0
J22 3
62 -0.0017032
63 0.0017032
22 0
J23 3
63 -0.027819
64 0.027819
23 0
J24 3
0 1
1 1
30 -1
J25 5
0 -1
1 -1
2 1
3 1
31 -1
J26 4
2 -1
3 -1
4 1
36 1
J27 3
4 -1
7 -1
8 1
J28 2
5 1
32 -1
J29 3
5 -1
6 1
37 1
J30 3
6 -1
7 1
38 1
J31 3
9 1
10 1
33 -1
J32 4
9 -1
10 -1
11 1
12 1
J33 5
11 -1
12 -1
13 1
14 1
39 1
J34 4
13 -1
14 -1
15 1
20 1
J35 3
15 -1
16 1
40 1
J36 3
16 -1
17 1
34 -1
J37 4
8 -1
17 -1
18 1
35 -1
J38 3
18 -1
19 1
41 1
J39 2
19 -1
42 1
J40 2
20 -1
21 1
J41 2
21 -1
22 1
J42 3
22 -1
23 1
43 1
J43 2
23 -1
44 1
J44 1
36 -1
J45 1
37 -1
J46 1
38 -1
J47 1
39 -1
J48 1
40 -1
J49 1
41 -1
J50 1
42 -1
J51 1
43 -1
J52 1
44 -1
J53 2
24 -1
30 1
J54 2
25 -1
31 1
J55 2
26 -1
32 1
J56 2
27 -1
33 1
J57 2
28 -1
34 1
J58 2
29 -1
35 1
J59 1
0 1
J60 1
1 1
J61 1
2 1
J62 1
3 1
J63 1
4 1
J64 1
5 1
J65 1
6 1
J66 1
7 1
J67 1
8 1
J68 1
9 1
J69 1
10 1
J70 1
11 1
J71 1
12 1
J72 1
13 1
J73 1
14 1
J74 1
15 1
J75 1
16 1
J76 1
17 1
J77 1
18 1
J78 1
19 1
J79 1
20 1
J80 1
21 1
J81 1
22 1
J82 1
23 1
J83 1
30 1
J84 1
31 1
J85 1
32 1
J86 1
33 1
J87 1
34 1
J88 1
35 1
J89 1
24 1
J90 1
25 1
J91 1
26 1
J92 1
27 1
J93 1
28 1
J94 1
29 1
J95 1
45 1
J96 1
46 1
J97 1
47 1
J98 1
48 1
J99 1
49 1
J100 1
50 1
J101 1
51 1
J102 1
52 1
J103 1
53 1
J104 1
54 1
J105 1
55 1
J106 1
56 1
J107 1
57 1
J108 1
58 1
J109 1
59 1
J110 1
60 1
J111 1
61 1
J112 1
62 1
J113 1
63 1
J114 1
64 1
G0 6
24 2.28
25 2.28
26 2.28
27 1.68
28 1.68
29 1.68
